Route #1: 62 22 64 42 43 41 56
Route #2: 23 49 24 18 55 25 50 32
Route #3: 44 3 16 63 1 33 6
Route #4: 51 17 40 9 12
Route #5: 39 31 10 38 58 26
Route #6: 7 53 11 59 14
Route #7: 54 13 57 15 37 20 60 36
Route #8: 4 34 46 8 19 35
Route #9: 52 27 45 29 5 47 48
Route #10: 30 21 61 28 2
Cost 848